numNurses = 221;
hours = 83;
demand = [11 7 41 5 44 36 9 28 46 27 50 37 8 3 35 10 34 52 36 25 51 5 37 26 36 25 49 53 16 3 9 48 8 25 1 40 10 32 10 50 39 7 37 36 36 43 7 0 47 53 39 26 29 6 24 19 46 8 53 30 29 54 43 42 23 26 48 20 24 6 29 18 5 7 23 8 30 19 43 25 48 33 26];
minHours = 14;
maxHours = 37;
maxConsec = 34;
maxPresence = 68;